files/upTests/_partition/partition_lit/0001.eprime.solution
language ESSENCE' 1.0
$ minion Nodes: 1
$ minion TotalTime: 0.003696
$ Savile Row TotalTime: 1.017
letting p_MSetOfSets_MSetExplicit_SetOccurrence be [[false, false, false, false, false, false, false, false, true;int(1..9)], 
[false, false, false, false, true, true, true, true, false;int(1..9)], 
[true, true, true, true, false, false, false, false, false;int(1..9)];int(1..3)]
